p cnf 59 213
-4 -3 0
-4 2 0
3 -2 4 0
-5 -2 0
-5 -4 0
2 4 5 0
-6 -1 0
-6 -5 0
1 5 6 0
2 -7 -8 0
-2 7 -8 0
2 7 8 0
-2 -7 8 0
-9 6 0
-9 8 0
-6 -8 9 0
11 -10 0
11 7 0
10 -7 -11 0
9 -11 -12 0
-9 11 -12 0
9 11 12 0
-9 -11 12 0
-14 13 0
-14 -3 0
-13 3 14 0
-16 -7 0
-16 -1 0
7 1 16 0
15 -16 -17 0
-15 16 -17 0
15 16 17 0
-15 -16 17 0
18 17 0
18 2 0
-17 -2 -18 0
-19 14 0
-19 18 0
-14 -18 19 0
-12 19 -20 0
12 -19 -20 0
-12 -19 20 0
12 19 20 0
-22 21 0
-22 -3 0
-21 3 22 0
20 -22 -23 0
-20 22 -23 0
20 22 23 0
-20 -22 23 0
24 -3 0
24 21 0
3 -21 -24 0
-25 -24 0
-25 13 0
24 -13 25 0
-26 -15 0
-26 14 0
15 -14 26 0
27 -17 0
27 26 0
17 -26 -27 0
28 25 0
28 27 0
-25 -27 -28 0
30 -7 0
30 29 0
7 -29 -30 0
28 -30 -31 0
-28 30 -31 0
28 30 31 0
-28 -30 31 0
32 -3 0
32 13 0
3 -13 -32 0
33 32 0
33 2 0
-32 -2 -33 0
-1 -33 -34 0
1 33 -34 0
-1 33 34 0
1 -33 34 0
-29 -18 -35 0
29 18 -35 0
-29 18 35 0
29 -18 35 0
1 -16 -36 0
-1 16 -36 0
1 16 36 0
-1 -16 36 0
-37 36 0
-37 -13 0
-36 13 37 0
-35 37 -38 0
35 -37 -38 0
-35 -37 38 0
35 37 38 0
-39 -34 0
-39 -38 0
34 38 39 0
40 2 0
40 -21 0
-2 21 -40 0
-41 -15 0
-41 -32 0
15 32 41 0
-42 -40 0
-42 -41 0
40 41 42 0
39 42 -43 0
-39 -42 -43 0
39 -42 43 0
-39 42 43 0
-44 31 0
-44 -43 0
-31 43 44 0
45 23 0
45 -44 0
-23 44 -45 0
46 -14 0
46 -17 0
14 17 -46 0
-47 -13 0
-47 -15 0
13 15 47 0
48 -46 0
48 47 0
46 -47 -48 0
1 -4 -49 0
-1 4 -49 0
1 4 49 0
-1 -4 49 0
49 -15 -50 0
-49 15 -50 0
49 15 50 0
-49 -15 50 0
50 17 -51 0
-50 -17 -51 0
50 -17 51 0
-50 17 51 0
-53 -52 0
-53 -14 0
52 14 53 0
-54 21 0
-54 -53 0
-21 53 54 0
51 -54 -55 0
-51 54 -55 0
51 54 55 0
-51 -54 55 0
56 48 0
56 -55 0
-48 55 -56 0
-57 5 0
-57 -32 0
-5 32 57 0
-58 -56 0
-58 -57 0
56 57 58 0
45 -58 -59 0
-45 58 -59 0
45 58 59 0
-45 -58 59 0
20 30 0
3 -39 -42 34 -4 0
-59 17 35 -30 49 22 0
-6 -52 -11 -28 36 0
-7 -31 0
-44 -20 47 -41 31 28 0
30 -50 0
58 45 0
-8 -14 44 -49 -48 0
39 -37 50 8 -46 0
58 24 48 38 0
-34 -7 10 49 -46 0
-36 18 0
-2 -13 15 -3 -51 0
-52 -26 0
16 27 -40 -8 25 0
38 -12 -10 -11 43 0
10 -51 35 -45 47 0
-5 7 56 51 0
49 -19 -4 -29 -58 27 0
59 22 -25 -50 31 0
5 17 46 -11 3 13 0
50 -19 -11 -12 -5 0
-45 -11 -2 0
-58 50 -14 0
-34 28 0
40 27 -51 0
20 49 24 -54 0
-40 49 -3 -21 9 0
14 -3 -28 7 19 0
47 49 25 18 -53 -51 0
28 17 23 43 -33 0
-44 -49 0
-36 -55 -56 42 0
34 -39 16 -27 55 0
-3 27 25 0
-4 29 -33 0
58 -23 8 -16 54 10 0
-53 55 14 -13 0
35 -48 50 34 -45 0
11 16 -21 -40 35 0
-10 -14 0
59 20 0
-32 36 0
45 -10 -6 -55 0
-11 -21 -42 56 0
-10 0
21 48 59 -14 30 0
-53 -7 0
59 0
